35 1000
65 400
23 269
14 455
81 162
82 269
78 111
20 201
98 92
70 498
100 482
68 480
1 316
42 260
3 67
47 459
40 132
8 133
73 494
11 53
94 258
9 399
69 402
17 75
85 253
71 94
34 280
78 226
28 485
70 396
94 363
26 375
40 214
86 342
48 234
67 241
